30
3 0 1
5 0 1
5 2 1
6 1 1
6 4 1
6 5 1
7 0 1
7 1 1
7 4 1
7 5 1
8 1 1
8 2 1
8 3 1
8 4 1
8 5 1
8 6 1
9 0 1
9 1 1
9 4 1
9 5 1
9 7 1
10 0 1
10 1 1
10 6 1
10 8 1
11 0 1
11 1 1
11 2 1
11 3 1
11 6 1
11 8 1
11 10 1
12 7 1
12 8 1
12 9 1
12 10 1
12 11 1
13 0 1
13 1 1
13 2 1
13 3 1
13 4 1
13 7 1
13 9 1
13 12 1
14 4 1
14 12 1
14 13 1
15 4 1
15 5 1
15 8 1
15 9 1
16 1 1
16 2 1
16 3 1
16 4 1
16 5 1
16 6 1
16 8 1
16 11 1
16 13 1
16 15 1
17 1 1
17 3 1
17 4 1
17 6 1
17 7 1
17 8 1
17 13 1
17 16 1
18 2 1
18 3 1
18 4 1
18 5 1
18 6 1
18 9 1
18 14 1
18 15 1
18 16 1
18 17 1
19 0 1
19 1 1
19 4 1
19 6 1
19 7 1
19 10 1
19 12 1
19 14 1
19 15 1
19 18 1
20 0 1
20 1 1
20 3 1
20 4 1
20 5 1
20 7 1
20 10 1
20 12 1
20 13 1
21 0 1
21 2 1
21 3 1
21 5 1
21 6 1
21 7 1
21 10 1
21 11 1
21 14 1
21 15 1
21 16 1
21 17 1
21 18 1
21 19 1
22 0 1
22 1 1
22 5 1
22 6 1
22 8 1
22 10 1
22 13 1
22 14 1
22 16 1
22 20 1
23 1 1
23 2 1
23 3 1
23 4 1
23 6 1
23 7 1
23 8 1
23 9 1
23 10 1
23 14 1
23 18 1
23 21 1
23 22 1
24 3 1
24 7 1
24 8 1
24 9 1
24 10 1
24 11 1
24 12 1
24 13 1
24 14 1
24 16 1
24 17 1
24 18 1
24 19 1
24 23 1
25 11 1
25 16 1
25 17 1
25 21 1
25 23 1
26 0 1
26 1 1
26 3 1
26 4 1
26 8 1
26 10 1
26 11 1
26 13 1
26 14 1
26 15 1
26 20 1
26 21 1
26 22 1
26 23 1
27 3 1
27 4 1
27 8 1
27 9 1
27 11 1
27 16 1
27 17 1
27 18 1
27 20 1
27 22 1
27 23 1
27 26 1
28 0 1
28 1 1
28 2 1
28 3 1
28 7 1
28 11 1
28 12 1
28 15 1
28 17 1
28 18 1
28 20 1
28 21 1
28 22 1
28 23 1
28 27 1
29 0 1
29 1 1
29 6 1
29 8 1
29 9 1
29 10 1
29 13 1
29 14 1
29 15 1
29 19 1
29 22 1
29 24 1
29 25 1
29 26 1
29 27 1
29 28 1
